problem_generation/data/GISP/train/er_n=62_m=1118_p=0.60_SET2_setparam=100.00_alpha=0.50_831.lp
maximize
OBJ:100x0 + 100x1 + 100x2 + 100x3 + 100x4 + 100x5 + 100x6 + 100x7 + 100x8 + 100x9 + 100x10 + 100x11 + 100x12 + 100x13 + 100x14 + 100x15 + 100x16 + 100x17 + 100x18 + 100x19 + 100x20 + 100x21 + 100x22 + 100x23 + 100x24 + 100x25 + 100x26 + 100x27 + 100x28 + 100x29 + 100x30 + 100x31 + 100x32 + 100x33 + 100x34 + 100x35 + 100x36 + 100x37 + 100x38 + 100x39 + 100x40 + 100x41 + 100x42 + 100x43 + 100x44 + 100x45 + 100x46 + 100x47 + 100x48 + 100x49 + 100x50 + 100x51 + 100x52 + 100x53 + 100x54 + 100x55 + 100x56 + 100x57 + 100x58 + 100x59 + 100x60 + 100x61 - y55_57 - y47_53 - y26_39 - y17_58 - y7_35 - y18_35 - y18_44 - y29_41 - y40_50 - y11_23 - y21_55 - y41_42 - y25_61 - y14_24 - y15_16 - y7_12 - y7_21 - y47_57 - y17_53 - y6_34 - y48_49 - y6_43 - y40_45 - y48_58 - y40_54 - y21_59 - y10_22 - y3_19 - y32_55 - y22_32 - y43_55 - y17_39 - y28_39 - y17_48 - y9_44 - y28_57 - y9_53 - y6_38 - y48_53 - y40_49 - y10_17 - y10_26 - y2_22 - y10_44 - y3_5 - y22_27 - y24_46 - y3_23 - y32_59 - y1_53 - y35_55 - y16_60 - y36_38 - y17_34 - y28_34 - y7_11 - y9_30 - y36_47 - y36_56 - y28_52 - y9_48 - y50_58 - y21_31 - y39_48 - y2_8 - y10_21 - y10_39 - y23_58 - y13_32 - y14_18 - y16_46 - y1_57 - y35_59 - y9_25 - y9_34 - y17_47 - y17_56 - y6_28 - y27_60 - y39_43 - y10_16 - y39_61 - y54_59 - y2_30 - y4_49 - y24_27 - y3_4 - y32_40 - y51_53 - y35_36 - y13_45 - y24_45 - y13_54 - y9_11 - y46_60 - y36_37 - y5_31 - y17_33 - y28_33 - y9_29 - y5_40 - y28_42 - y9_38 - y5_49 - y9_47 - y5_58 - y27_55 - y8_51 - y21_30 - y8_60 - y19_60 - y10_11 - y39_47 - y39_56 - y12_39 - y2_16 - y20_52 - y23_57 - y4_53 - y32_35 - y13_31 - y24_31 - y32_44 - y16_36 - y5_8 - y46_55 - y38_51 - y5_35 - y5_44 - y27_41 - y8_46 - y19_46 - y27_59 - y42_48 - y12_25 - y4_30 - y23_43 - y20_56 - y4_39 - y4_48 - y23_61 - y1_24 - y13_44 - y5_12 - y5_21 - y57_59 - y49_55 - y5_30 - y7_58 - y42_43 - y27_54 - y0_37 - y8_50 - y11_46 - y30_59 - y20_24 - y42_61 - y12_20 - y23_29 - y20_42 - y31_42 - y53_57 - y45_53 - y1_28 - y24_30 - y4_61 - y16_26 - y5_7 - y9_14 - y5_25 - y15_57 - y38_59 - y27_31 - y8_27 - y27_40 - y27_49 - y8_45 - y30_45 - y12_24 - y23_24 - y31_37 - y4_29 - y34_39 - y34_48 - y24_25 - y22_55 - y45_57 - y1_32 - y26_34 - y46_58 - y7_39 - y18_39 - y49_54 - y18_48 - y26_61 - y7_57 - y8_22 - y8_31 - y27_53 - y11_36 - y19_49 - y11_45 - y30_58 - y20_23 - y4_6 - y12_19 - y4_24 - y44_60 - y23_37 - y1_9 - y34_43 - y1_18 - y22_50 - y34_52 - y14_46 - y22_59 - y45_61 - y37_57 - y15_29 - y18_25 - y15_47 - y38_49 - y15_56 - y0_4 - y11_13 - y8_26 - y0_22 - y0_31 - y12_14 - y4_10 - y44_46 - y41_59 - y25_60 - y22_36 - y3_32 - y34_47 - y14_50 - y37_61 - y7_20 - y18_20 - y15_33 - y26_51 - y18_47 - y18_56 - y11_17 - y8_30 - y11_26 - y11_35 - y4_5 - y33_41 - y33_50 - y2_44 - y44_59 - y3_27 - y37_38 - y37_47 - y15_19 - y7_15 - y7_24 - y7_42 - y8_16 - y0_12 - y11_12 - y48_61 - y6_55 - y21_53 - y33_36 - y41_49 - y25_41 - y25_50 - y2_57 - y22_35 - y14_40 - y3_49 - y7_10 - y7_19 - y47_55 - y15_32 - y26_32 - y29_34 - y29_43 - y40_43 - y0_16 - y29_52 - y21_48 - y29_61 - y25_27 - y33_49 - y25_45 - y7_23 - y36_59 - y47_59 - y28_55 - y48_51 - y21_43 - y21_52 - y51_52 - y16_58 - y28_32 - y7_9 - y47_54 - y5_57 - y17_59 - y58_60 - y9_55 - y6_31 - y29_33 - y6_40 - y29_42 - y29_51 - y10_19 - y39_55 - y2_15 - y2_24 - y20_60 - y25_26 - y32_34 - y3_7 - y32_43 - y51_56 - y13_39 - y14_16 - y43_52 - y32_61 - y16_44 - y43_61 - y1_55 - y36_40 - y47_49 - y9_32 - y5_52 - y9_59 - y50_60 - y29_37 - y21_42 - y20_46 - y10_23 - y20_55 - y31_55 - y10_32 - y12_51 - y13_25 - y24_34 - y13_43 - y35_43 - y16_39 - y13_52 - y24_61 - y35_61 - y5_20 - y17_22 - y9_27 - y5_47 - y28_49 - y9_54 - y50_55 - y39_45 - y20_41 - y31_41 - y39_54 - y20_50 - y31_50 - y12_55 - y24_29 - y16_34 - y13_47 - y1_54 - y35_56 - y16_52 - y5_15 - y5_24 - y17_26 - y36_39 - y38_58 - y5_33 - y17_35 - y5_42 - y6_25 - y30_53 - y42_55 - y20_36 - y23_41 - y2_18 - y54_56 - y13_15 - y12_59 - y32_37 - y1_31 - y43_46 - y1_40 - y13_42 - y16_38 - y16_47 - y5_19 - y17_21 - y49_53 - y17_30 - y9_26 - y27_43 - y27_52 - y50_54 - y30_48 - y12_27 - y31_40 - y4_32 - y12_45 - y1_8 - y12_54 - y4_50 - y56_60 - y5_14 - y15_46 - y38_48 - y46_61 - y15_55 - y49_57 - y7_51 - y27_38 - y8_34 - y27_47 - y42_54 - y11_48 - y8_61 - y20_26 - y30_61 - y11_57 - y31_35 - y20_44 - y1_3 - y53_59 - y16_28 - y1_39 - y14_58 - y26_41 - y26_50 - y38_52 - y15_59 - y26_59 - y18_55 - y8_20 - y27_33 - y8_29 - y19_29 - y8_56 - y30_56 - y0_52 - y11_52 - y12_17 - y11_61 - y23_26 - y33_58 - y23_44 - y4_40 - y34_41 - y13_18 - y53_54 - y22_48 - y1_25 - y22_57 - y34_59 - y3_53 - y37_55 - y5_13 - y15_45 - y18_41 - y15_54 - y8_15 - y27_28 - y8_24 - y48_60 - y11_20 - y30_33 - y27_46 - y11_29 - y8_42 - y30_42 - y19_51 - y0_47 - y11_47 - y20_25 - y4_8 - y60_61 - y12_21 - y41_57 - y4_35 - y22_34 - y22_43 - y14_39 - y37_41 - y34_54 - y3_48 - y14_48 - y14_57 - y7_18 - y7_27 - y26_40 - y26_49 - y8_10 - y0_6 - y18_54 - y0_15 - y11_15 - y0_24 - y8_37 - y0_33 - y11_42 - y12_16 - y52_61 - y25_44 - y44_57 - y22_38 - y34_49 - y14_43 - y37_45 - y14_52 - y15_17 - y37_54 - y7_13 - y15_26 - y26_44 - y18_40 - y0_1 - y40_46 - y29_55 - y40_55 - y21_60 - y33_43 - y41_56 - y10_59 - y25_57 - y14_20 - y34_44 - y3_38
 Subject to
C1: x0+x1-y0_1 <=1 
C2: x0+x4-y0_4 <=1 
C3: x0+x6-y0_6 <=1 
C4: x0+x11 <=1 
C5: x0+x12-y0_12 <=1 
C6: x0+x14 <=1 
C7: x0+x15-y0_15 <=1 
C8: x0+x16-y0_16 <=1 
C9: x0+x18 <=1 
C10: x0+x22-y0_22 <=1 
C11: x0+x24-y0_24 <=1 
C12: x0+x29 <=1 
C13: x0+x30 <=1 
C14: x0+x31-y0_31 <=1 
C15: x0+x32 <=1 
C16: x0+x33-y0_33 <=1 
C17: x0+x35 <=1 
C18: x0+x37-y0_37 <=1 
C19: x0+x38 <=1 
C20: x0+x39 <=1 
C21: x0+x41 <=1 
C22: x0+x42 <=1 
C23: x0+x43 <=1 
C24: x0+x45 <=1 
C25: x0+x47-y0_47 <=1 
C26: x0+x49 <=1 
C27: x0+x51 <=1 
C28: x0+x52-y0_52 <=1 
C29: x0+x53 <=1 
C30: x0+x55 <=1 
C31: x0+x57 <=1 
C32: x0+x58 <=1 
C33: x0+x59 <=1 
C34: x1+x3-y1_3 <=1 
C35: x1+x4 <=1 
C36: x1+x6 <=1 
C37: x1+x8-y1_8 <=1 
C38: x1+x9-y1_9 <=1 
C39: x1+x12 <=1 
C40: x1+x15 <=1 
C41: x1+x17 <=1 
C42: x1+x18-y1_18 <=1 
C43: x1+x19 <=1 
C44: x1+x21 <=1 
C45: x1+x24-y1_24 <=1 
C46: x1+x25-y1_25 <=1 
C47: x1+x28-y1_28 <=1 
C48: x1+x31-y1_31 <=1 
C49: x1+x32-y1_32 <=1 
C50: x1+x34 <=1 
C51: x1+x39-y1_39 <=1 
C52: x1+x40-y1_40 <=1 
C53: x1+x42 <=1 
C54: x1+x51 <=1 
C55: x1+x53-y1_53 <=1 
C56: x1+x54-y1_54 <=1 
C57: x1+x55-y1_55 <=1 
C58: x1+x56 <=1 
C59: x1+x57-y1_57 <=1 
C60: x1+x59 <=1 
C61: x1+x60 <=1 
C62: x1+x61 <=1 
C63: x2+x6 <=1 
C64: x2+x7 <=1 
C65: x2+x8-y2_8 <=1 
C66: x2+x9 <=1 
C67: x2+x11 <=1 
C68: x2+x15-y2_15 <=1 
C69: x2+x16-y2_16 <=1 
C70: x2+x17 <=1 
C71: x2+x18-y2_18 <=1 
C72: x2+x22-y2_22 <=1 
C73: x2+x24-y2_24 <=1 
C74: x2+x29 <=1 
C75: x2+x30-y2_30 <=1 
C76: x2+x31 <=1 
C77: x2+x32 <=1 
C78: x2+x34 <=1 
C79: x2+x35 <=1 
C80: x2+x37 <=1 
C81: x2+x38 <=1 
C82: x2+x42 <=1 
C83: x2+x44-y2_44 <=1 
C84: x2+x46 <=1 
C85: x2+x51 <=1 
C86: x2+x52 <=1 
C87: x2+x53 <=1 
C88: x2+x55 <=1 
C89: x2+x57-y2_57 <=1 
C90: x2+x60 <=1 
C91: x2+x61 <=1 
C92: x3+x4-y3_4 <=1 
C93: x3+x5-y3_5 <=1 
C94: x3+x7-y3_7 <=1 
C95: x3+x8 <=1 
C96: x3+x13 <=1 
C97: x3+x14 <=1 
C98: x3+x15 <=1 
C99: x3+x19-y3_19 <=1 
C100: x3+x23-y3_23 <=1 
C101: x3+x25 <=1 
C102: x3+x27-y3_27 <=1 
C103: x3+x28 <=1 
C104: x3+x30 <=1 
C105: x3+x32-y3_32 <=1 
C106: x3+x34 <=1 
C107: x3+x37 <=1 
C108: x3+x38-y3_38 <=1 
C109: x3+x39 <=1 
C110: x3+x40 <=1 
C111: x3+x41 <=1 
C112: x3+x47 <=1 
C113: x3+x48-y3_48 <=1 
C114: x3+x49-y3_49 <=1 
C115: x3+x50 <=1 
C116: x3+x51 <=1 
C117: x3+x53-y3_53 <=1 
C118: x4+x5-y4_5 <=1 
C119: x4+x6-y4_6 <=1 
C120: x4+x7 <=1 
C121: x4+x8-y4_8 <=1 
C122: x4+x9 <=1 
C123: x4+x10-y4_10 <=1 
C124: x4+x12 <=1 
C125: x4+x13 <=1 
C126: x4+x14 <=1 
C127: x4+x18 <=1 
C128: x4+x19 <=1 
C129: x4+x21 <=1 
C130: x4+x22 <=1 
C131: x4+x23 <=1 
C132: x4+x24-y4_24 <=1 
C133: x4+x25 <=1 
C134: x4+x28 <=1 
C135: x4+x29-y4_29 <=1 
C136: x4+x30-y4_30 <=1 
C137: x4+x31 <=1 
C138: x4+x32-y4_32 <=1 
C139: x4+x35-y4_35 <=1 
C140: x4+x36 <=1 
C141: x4+x37 <=1 
C142: x4+x38 <=1 
C143: x4+x39-y4_39 <=1 
C144: x4+x40-y4_40 <=1 
C145: x4+x43 <=1 
C146: x4+x44 <=1 
C147: x4+x46 <=1 
C148: x4+x48-y4_48 <=1 
C149: x4+x49-y4_49 <=1 
C150: x4+x50-y4_50 <=1 
C151: x4+x51 <=1 
C152: x4+x52 <=1 
C153: x4+x53-y4_53 <=1 
C154: x4+x57 <=1 
C155: x4+x58 <=1 
C156: x4+x61-y4_61 <=1 
C157: x5+x7-y5_7 <=1 
C158: x5+x8-y5_8 <=1 
C159: x5+x9 <=1 
C160: x5+x12-y5_12 <=1 
C161: x5+x13-y5_13 <=1 
C162: x5+x14-y5_14 <=1 
C163: x5+x15-y5_15 <=1 
C164: x5+x16 <=1 
C165: x5+x19-y5_19 <=1 
C166: x5+x20-y5_20 <=1 
C167: x5+x21-y5_21 <=1 
C168: x5+x24-y5_24 <=1 
C169: x5+x25-y5_25 <=1 
C170: x5+x26 <=1 
C171: x5+x27 <=1 
C172: x5+x28 <=1 
C173: x5+x30-y5_30 <=1 
C174: x5+x31-y5_31 <=1 
C175: x5+x33-y5_33 <=1 
C176: x5+x35-y5_35 <=1 
C177: x5+x39 <=1 
C178: x5+x40-y5_40 <=1 
C179: x5+x42-y5_42 <=1 
C180: x5+x44-y5_44 <=1 
C181: x5+x45 <=1 
C182: x5+x47-y5_47 <=1 
C183: x5+x49-y5_49 <=1 
C184: x5+x50 <=1 
C185: x5+x52-y5_52 <=1 
C186: x5+x57-y5_57 <=1 
C187: x5+x58-y5_58 <=1 
C188: x5+x61 <=1 
C189: x6+x8 <=1 
C190: x6+x9 <=1 
C191: x6+x10 <=1 
C192: x6+x11 <=1 
C193: x6+x14 <=1 
C194: x6+x15 <=1 
C195: x6+x18 <=1 
C196: x6+x20 <=1 
C197: x6+x21 <=1 
C198: x6+x24 <=1 
C199: x6+x25-y6_25 <=1 
C200: x6+x26 <=1 
C201: x6+x27 <=1 
C202: x6+x28-y6_28 <=1 
C203: x6+x31-y6_31 <=1 
C204: x6+x33 <=1 
C205: x6+x34-y6_34 <=1 
C206: x6+x38-y6_38 <=1 
C207: x6+x40-y6_40 <=1 
C208: x6+x43-y6_43 <=1 
C209: x6+x46 <=1 
C210: x6+x47 <=1 
C211: x6+x49 <=1 
C212: x6+x50 <=1 
C213: x6+x55-y6_55 <=1 
C214: x6+x57 <=1 
C215: x6+x60 <=1 
C216: x7+x8 <=1 
C217: x7+x9-y7_9 <=1 
C218: x7+x10-y7_10 <=1 
C219: x7+x11-y7_11 <=1 
C220: x7+x12-y7_12 <=1 
C221: x7+x13-y7_13 <=1 
C222: x7+x15-y7_15 <=1 
C223: x7+x16 <=1 
C224: x7+x17 <=1 
C225: x7+x18-y7_18 <=1 
C226: x7+x19-y7_19 <=1 
C227: x7+x20-y7_20 <=1 
C228: x7+x21-y7_21 <=1 
C229: x7+x23-y7_23 <=1 
C230: x7+x24-y7_24 <=1 
C231: x7+x25 <=1 
C232: x7+x26 <=1 
C233: x7+x27-y7_27 <=1 
C234: x7+x28 <=1 
C235: x7+x29 <=1 
C236: x7+x30 <=1 
C237: x7+x31 <=1 
C238: x7+x33 <=1 
C239: x7+x34 <=1 
C240: x7+x35-y7_35 <=1 
C241: x7+x37 <=1 
C242: x7+x39-y7_39 <=1 
C243: x7+x41 <=1 
C244: x7+x42-y7_42 <=1 
C245: x7+x43 <=1 
C246: x7+x44 <=1 
C247: x7+x45 <=1 
C248: x7+x50 <=1 
C249: x7+x51-y7_51 <=1 
C250: x7+x53 <=1 
C251: x7+x54 <=1 
C252: x7+x57-y7_57 <=1 
C253: x7+x58-y7_58 <=1 
C254: x7+x59 <=1 
C255: x7+x61 <=1 
C256: x8+x10-y8_10 <=1 
C257: x8+x12 <=1 
C258: x8+x13 <=1 
C259: x8+x15-y8_15 <=1 
C260: x8+x16-y8_16 <=1 
C261: x8+x17 <=1 
C262: x8+x19 <=1 
C263: x8+x20-y8_20 <=1 
C264: x8+x21 <=1 
C265: x8+x22-y8_22 <=1 
C266: x8+x24-y8_24 <=1 
C267: x8+x25 <=1 
C268: x8+x26-y8_26 <=1 
C269: x8+x27-y8_27 <=1 
C270: x8+x28 <=1 
C271: x8+x29-y8_29 <=1 
C272: x8+x30-y8_30 <=1 
C273: x8+x31-y8_31 <=1 
C274: x8+x32 <=1 
C275: x8+x34-y8_34 <=1 
C276: x8+x35 <=1 
C277: x8+x36 <=1 
C278: x8+x37-y8_37 <=1 
C279: x8+x40 <=1 
C280: x8+x42-y8_42 <=1 
C281: x8+x43 <=1 
C282: x8+x44 <=1 
C283: x8+x45-y8_45 <=1 
C284: x8+x46-y8_46 <=1 
C285: x8+x47 <=1 
C286: x8+x50-y8_50 <=1 
C287: x8+x51-y8_51 <=1 
C288: x8+x52 <=1 
C289: x8+x53 <=1 
C290: x8+x54 <=1 
C291: x8+x55 <=1 
C292: x8+x56-y8_56 <=1 
C293: x8+x57 <=1 
C294: x8+x60-y8_60 <=1 
C295: x8+x61-y8_61 <=1 
C296: x9+x10 <=1 
C297: x9+x11-y9_11 <=1 
C298: x9+x13 <=1 
C299: x9+x14-y9_14 <=1 
C300: x9+x16 <=1 
C301: x9+x19 <=1 
C302: x9+x21 <=1 
C303: x9+x22 <=1 
C304: x9+x25-y9_25 <=1 
C305: x9+x26-y9_26 <=1 
C306: x9+x27-y9_27 <=1 
C307: x9+x29-y9_29 <=1 
C308: x9+x30-y9_30 <=1 
C309: x9+x31 <=1 
C310: x9+x32-y9_32 <=1 
C311: x9+x34-y9_34 <=1 
C312: x9+x37 <=1 
C313: x9+x38-y9_38 <=1 
C314: x9+x39 <=1 
C315: x9+x40 <=1 
C316: x9+x41 <=1 
C317: x9+x42 <=1 
C318: x9+x44-y9_44 <=1 
C319: x9+x46 <=1 
C320: x9+x47-y9_47 <=1 
C321: x9+x48-y9_48 <=1 
C322: x9+x50 <=1 
C323: x9+x52 <=1 
C324: x9+x53-y9_53 <=1 
C325: x9+x54-y9_54 <=1 
C326: x9+x55-y9_55 <=1 
C327: x9+x56 <=1 
C328: x9+x58 <=1 
C329: x9+x59-y9_59 <=1 
C330: x10+x11-y10_11 <=1 
C331: x10+x12 <=1 
C332: x10+x13 <=1 
C333: x10+x15 <=1 
C334: x10+x16-y10_16 <=1 
C335: x10+x17-y10_17 <=1 
C336: x10+x19-y10_19 <=1 
C337: x10+x20 <=1 
C338: x10+x21-y10_21 <=1 
C339: x10+x22-y10_22 <=1 
C340: x10+x23-y10_23 <=1 
C341: x10+x24 <=1 
C342: x10+x26-y10_26 <=1 
C343: x10+x30 <=1 
C344: x10+x32-y10_32 <=1 
C345: x10+x34 <=1 
C346: x10+x38 <=1 
C347: x10+x39-y10_39 <=1 
C348: x10+x40 <=1 
C349: x10+x44-y10_44 <=1 
C350: x10+x45 <=1 
C351: x10+x46 <=1 
C352: x10+x47 <=1 
C353: x10+x49 <=1 
C354: x10+x51 <=1 
C355: x10+x54 <=1 
C356: x10+x57 <=1 
C357: x10+x58 <=1 
C358: x10+x59-y10_59 <=1 
C359: x11+x12-y11_12 <=1 
C360: x11+x13-y11_13 <=1 
C361: x11+x15-y11_15 <=1 
C362: x11+x17-y11_17 <=1 
C363: x11+x18 <=1 
C364: x11+x19 <=1 
C365: x11+x20-y11_20 <=1 
C366: x11+x21 <=1 
C367: x11+x23-y11_23 <=1 
C368: x11+x26-y11_26 <=1 
C369: x11+x28 <=1 
C370: x11+x29-y11_29 <=1 
C371: x11+x32 <=1 
C372: x11+x33 <=1 
C373: x11+x35-y11_35 <=1 
C374: x11+x36-y11_36 <=1 
C375: x11+x37 <=1 
C376: x11+x39 <=1 
C377: x11+x40 <=1 
C378: x11+x41 <=1 
C379: x11+x42-y11_42 <=1 
C380: x11+x43 <=1 
C381: x11+x45-y11_45 <=1 
C382: x11+x46-y11_46 <=1 
C383: x11+x47-y11_47 <=1 
C384: x11+x48-y11_48 <=1 
C385: x11+x49 <=1 
C386: x11+x50 <=1 
C387: x11+x52-y11_52 <=1 
C388: x11+x53 <=1 
C389: x11+x56 <=1 
C390: x11+x57-y11_57 <=1 
C391: x11+x59 <=1 
C392: x11+x60 <=1 
C393: x11+x61-y11_61 <=1 
C394: x12+x14-y12_14 <=1 
C395: x12+x16-y12_16 <=1 
C396: x12+x17-y12_17 <=1 
C397: x12+x18 <=1 
C398: x12+x19-y12_19 <=1 
C399: x12+x20-y12_20 <=1 
C400: x12+x21-y12_21 <=1 
C401: x12+x22 <=1 
C402: x12+x24-y12_24 <=1 
C403: x12+x25-y12_25 <=1 
C404: x12+x27-y12_27 <=1 
C405: x12+x28 <=1 
C406: x12+x32 <=1 
C407: x12+x34 <=1 
C408: x12+x37 <=1 
C409: x12+x39-y12_39 <=1 
C410: x12+x43 <=1 
C411: x12+x44 <=1 
C412: x12+x45-y12_45 <=1 
C413: x12+x47 <=1 
C414: x12+x51-y12_51 <=1 
C415: x12+x53 <=1 
C416: x12+x54-y12_54 <=1 
C417: x12+x55-y12_55 <=1 
C418: x12+x56 <=1 
C419: x12+x59-y12_59 <=1 
C420: x12+x60 <=1 
C421: x13+x14 <=1 
C422: x13+x15-y13_15 <=1 
C423: x13+x17 <=1 
C424: x13+x18-y13_18 <=1 
C425: x13+x25-y13_25 <=1 
C426: x13+x26 <=1 
C427: x13+x27 <=1 
C428: x13+x30 <=1 
C429: x13+x31-y13_31 <=1 
C430: x13+x32-y13_32 <=1 
C431: x13+x33 <=1 
C432: x13+x34 <=1 
C433: x13+x35 <=1 
C434: x13+x39-y13_39 <=1 
C435: x13+x40 <=1 
C436: x13+x41 <=1 
C437: x13+x42-y13_42 <=1 
C438: x13+x43-y13_43 <=1 
C439: x13+x44-y13_44 <=1 
C440: x13+x45-y13_45 <=1 
C441: x13+x46 <=1 
C442: x13+x47-y13_47 <=1 
C443: x13+x50 <=1 
C444: x13+x52-y13_52 <=1 
C445: x13+x53 <=1 
C446: x13+x54-y13_54 <=1 
C447: x14+x16-y14_16 <=1 
C448: x14+x18-y14_18 <=1 
C449: x14+x20-y14_20 <=1 
C450: x14+x22 <=1 
C451: x14+x24-y14_24 <=1 
C452: x14+x25 <=1 
C453: x14+x27 <=1 
C454: x14+x29 <=1 
C455: x14+x31 <=1 
C456: x14+x32 <=1 
C457: x14+x33 <=1 
C458: x14+x38 <=1 
C459: x14+x39-y14_39 <=1 
C460: x14+x40-y14_40 <=1 
C461: x14+x43-y14_43 <=1 
C462: x14+x45 <=1 
C463: x14+x46-y14_46 <=1 
C464: x14+x48-y14_48 <=1 
C465: x14+x49 <=1 
C466: x14+x50-y14_50 <=1 
C467: x14+x51 <=1 
C468: x14+x52-y14_52 <=1 
C469: x14+x53 <=1 
C470: x14+x54 <=1 
C471: x14+x57-y14_57 <=1 
C472: x14+x58-y14_58 <=1 
C473: x14+x60 <=1 
C474: x15+x16-y15_16 <=1 
C475: x15+x17-y15_17 <=1 
C476: x15+x18 <=1 
C477: x15+x19-y15_19 <=1 
C478: x15+x22 <=1 
C479: x15+x24 <=1 
C480: x15+x25 <=1 
C481: x15+x26-y15_26 <=1 
C482: x15+x27 <=1 
C483: x15+x29-y15_29 <=1 
C484: x15+x31 <=1 
C485: x15+x32-y15_32 <=1 
C486: x15+x33-y15_33 <=1 
C487: x15+x34 <=1 
C488: x15+x37 <=1 
C489: x15+x45-y15_45 <=1 
C490: x15+x46-y15_46 <=1 
C491: x15+x47-y15_47 <=1 
C492: x15+x48 <=1 
C493: x15+x49 <=1 
C494: x15+x53 <=1 
C495: x15+x54-y15_54 <=1 
C496: x15+x55-y15_55 <=1 
C497: x15+x56-y15_56 <=1 
C498: x15+x57-y15_57 <=1 
C499: x15+x59-y15_59 <=1 
C500: x15+x60 <=1 
C501: x15+x61 <=1 
C502: x16+x17 <=1 
C503: x16+x19 <=1 
C504: x16+x21 <=1 
C505: x16+x23 <=1 
C506: x16+x26-y16_26 <=1 
C507: x16+x27 <=1 
C508: x16+x28-y16_28 <=1 
C509: x16+x29 <=1 
C510: x16+x32 <=1 
C511: x16+x34-y16_34 <=1 
C512: x16+x35 <=1 
C513: x16+x36-y16_36 <=1 
C514: x16+x37 <=1 
C515: x16+x38-y16_38 <=1 
C516: x16+x39-y16_39 <=1 
C517: x16+x43 <=1 
C518: x16+x44-y16_44 <=1 
C519: x16+x45 <=1 
C520: x16+x46-y16_46 <=1 
C521: x16+x47-y16_47 <=1 
C522: x16+x48 <=1 
C523: x16+x51 <=1 
C524: x16+x52-y16_52 <=1 
C525: x16+x53 <=1 
C526: x16+x54 <=1 
C527: x16+x55 <=1 
C528: x16+x57 <=1 
C529: x16+x58-y16_58 <=1 
C530: x16+x59 <=1 
C531: x16+x60-y16_60 <=1 
C532: x17+x19 <=1 
C533: x17+x20 <=1 
C534: x17+x21-y17_21 <=1 
C535: x17+x22-y17_22 <=1 
C536: x17+x24 <=1 
C537: x17+x26-y17_26 <=1 
C538: x17+x30-y17_30 <=1 
C539: x17+x31 <=1 
C540: x17+x33-y17_33 <=1 
C541: x17+x34-y17_34 <=1 
C542: x17+x35-y17_35 <=1 
C543: x17+x39-y17_39 <=1 
C544: x17+x40 <=1 
C545: x17+x43 <=1 
C546: x17+x44 <=1 
C547: x17+x45 <=1 
C548: x17+x46 <=1 
C549: x17+x47-y17_47 <=1 
C550: x17+x48-y17_48 <=1 
C551: x17+x49 <=1 
C552: x17+x51 <=1 
C553: x17+x53-y17_53 <=1 
C554: x17+x54 <=1 
C555: x17+x56-y17_56 <=1 
C556: x17+x58-y17_58 <=1 
C557: x17+x59-y17_59 <=1 
C558: x18+x19 <=1 
C559: x18+x20-y18_20 <=1 
C560: x18+x22 <=1 
C561: x18+x25-y18_25 <=1 
C562: x18+x26 <=1 
C563: x18+x28 <=1 
C564: x18+x35-y18_35 <=1 
C565: x18+x39-y18_39 <=1 
C566: x18+x40-y18_40 <=1 
C567: x18+x41-y18_41 <=1 
C568: x18+x42 <=1 
C569: x18+x44-y18_44 <=1 
C570: x18+x46 <=1 
C571: x18+x47-y18_47 <=1 
C572: x18+x48-y18_48 <=1 
C573: x18+x49 <=1 
C574: x18+x51 <=1 
C575: x18+x53 <=1 
C576: x18+x54-y18_54 <=1 
C577: x18+x55-y18_55 <=1 
C578: x18+x56-y18_56 <=1 
C579: x18+x57 <=1 
C580: x18+x60 <=1 
C581: x18+x61 <=1 
C582: x19+x21 <=1 
C583: x19+x23 <=1 
C584: x19+x25 <=1 
C585: x19+x27 <=1 
C586: x19+x29-y19_29 <=1 
C587: x19+x31 <=1 
C588: x19+x33 <=1 
C589: x19+x37 <=1 
C590: x19+x46-y19_46 <=1 
C591: x19+x47 <=1 
C592: x19+x49-y19_49 <=1 
C593: x19+x50 <=1 
C594: x19+x51-y19_51 <=1 
C595: x19+x53 <=1 
C596: x19+x55 <=1 
C597: x19+x56 <=1 
C598: x19+x58 <=1 
C599: x19+x60-y19_60 <=1 
C600: x19+x61 <=1 
C601: x20+x23-y20_23 <=1 
C602: x20+x24-y20_24 <=1 
C603: x20+x25-y20_25 <=1 
C604: x20+x26-y20_26 <=1 
C605: x20+x27 <=1 
C606: x20+x31 <=1 
C607: x20+x32 <=1 
C608: x20+x34 <=1 
C609: x20+x36-y20_36 <=1 
C610: x20+x37 <=1 
C611: x20+x39 <=1 
C612: x20+x40 <=1 
C613: x20+x41-y20_41 <=1 
C614: x20+x42-y20_42 <=1 
C615: x20+x43 <=1 
C616: x20+x44-y20_44 <=1 
C617: x20+x46-y20_46 <=1 
C618: x20+x47 <=1 
C619: x20+x48 <=1 
C620: x20+x49 <=1 
C621: x20+x50-y20_50 <=1 
C622: x20+x52-y20_52 <=1 
C623: x20+x53 <=1 
C624: x20+x55-y20_55 <=1 
C625: x20+x56-y20_56 <=1 
C626: x20+x57 <=1 
C627: x20+x60-y20_60 <=1 
C628: x21+x23 <=1 
C629: x21+x25 <=1 
C630: x21+x27 <=1 
C631: x21+x28 <=1 
C632: x21+x29 <=1 
C633: x21+x30-y21_30 <=1 
C634: x21+x31-y21_31 <=1 
C635: x21+x32 <=1 
C636: x21+x34 <=1 
C637: x21+x37 <=1 
C638: x21+x41 <=1 
C639: x21+x42-y21_42 <=1 
C640: x21+x43-y21_43 <=1 
C641: x21+x44 <=1 
C642: x21+x47 <=1 
C643: x21+x48-y21_48 <=1 
C644: x21+x49 <=1 
C645: x21+x51 <=1 
C646: x21+x52-y21_52 <=1 
C647: x21+x53-y21_53 <=1 
C648: x21+x55-y21_55 <=1 
C649: x21+x57 <=1 
C650: x21+x58 <=1 
C651: x21+x59-y21_59 <=1 
C652: x21+x60-y21_60 <=1 
C653: x21+x61 <=1 
C654: x22+x23 <=1 
C655: x22+x27-y22_27 <=1 
C656: x22+x31 <=1 
C657: x22+x32-y22_32 <=1 
C658: x22+x34-y22_34 <=1 
C659: x22+x35-y22_35 <=1 
C660: x22+x36-y22_36 <=1 
C661: x22+x37 <=1 
C662: x22+x38-y22_38 <=1 
C663: x22+x40 <=1 
C664: x22+x42 <=1 
C665: x22+x43-y22_43 <=1 
C666: x22+x48-y22_48 <=1 
C667: x22+x50-y22_50 <=1 
C668: x22+x51 <=1 
C669: x22+x52 <=1 
C670: x22+x53 <=1 
C671: x22+x55-y22_55 <=1 
C672: x22+x56 <=1 
C673: x22+x57-y22_57 <=1 
C674: x22+x58 <=1 
C675: x22+x59-y22_59 <=1 
C676: x23+x24-y23_24 <=1 
C677: x23+x25 <=1 
C678: x23+x26-y23_26 <=1 
C679: x23+x29-y23_29 <=1 
C680: x23+x33 <=1 
C681: x23+x35 <=1 
C682: x23+x36 <=1 
C683: x23+x37-y23_37 <=1 
C684: x23+x38 <=1 
C685: x23+x40 <=1 
C686: x23+x41-y23_41 <=1 
C687: x23+x42 <=1 
C688: x23+x43-y23_43 <=1 
C689: x23+x44-y23_44 <=1 
C690: x23+x45 <=1 
C691: x23+x47 <=1 
C692: x23+x51 <=1 
C693: x23+x52 <=1 
C694: x23+x53 <=1 
C695: x23+x55 <=1 
C696: x23+x57-y23_57 <=1 
C697: x23+x58-y23_58 <=1 
C698: x23+x59 <=1 
C699: x23+x60 <=1 
C700: x23+x61-y23_61 <=1 
C701: x24+x25-y24_25 <=1 
C702: x24+x26 <=1 
C703: x24+x27-y24_27 <=1 
C704: x24+x29-y24_29 <=1 
C705: x24+x30-y24_30 <=1 
C706: x24+x31-y24_31 <=1 
C707: x24+x34-y24_34 <=1 
C708: x24+x36 <=1 
C709: x24+x41 <=1 
C710: x24+x42 <=1 
C711: x24+x43 <=1 
C712: x24+x45-y24_45 <=1 
C713: x24+x46-y24_46 <=1 
C714: x24+x48 <=1 
C715: x24+x51 <=1 
C716: x24+x52 <=1 
C717: x24+x54 <=1 
C718: x24+x59 <=1 
C719: x24+x61-y24_61 <=1 
C720: x25+x26-y25_26 <=1 
C721: x25+x27-y25_27 <=1 
C722: x25+x29 <=1 
C723: x25+x33 <=1 
C724: x25+x35 <=1 
C725: x25+x39 <=1 
C726: x25+x41-y25_41 <=1 
C727: x25+x42 <=1 
C728: x25+x43 <=1 
C729: x25+x44-y25_44 <=1 
C730: x25+x45-y25_45 <=1 
C731: x25+x48 <=1 
C732: x25+x50-y25_50 <=1 
C733: x25+x55 <=1 
C734: x25+x56 <=1 
C735: x25+x57-y25_57 <=1 
C736: x25+x59 <=1 
C737: x25+x60-y25_60 <=1 
C738: x25+x61-y25_61 <=1 
C739: x26+x28 <=1 
C740: x26+x32-y26_32 <=1 
C741: x26+x33 <=1 
C742: x26+x34-y26_34 <=1 
C743: x26+x35 <=1 
C744: x26+x39-y26_39 <=1 
C745: x26+x40-y26_40 <=1 
C746: x26+x41-y26_41 <=1 
C747: x26+x44-y26_44 <=1 
C748: x26+x49-y26_49 <=1 
C749: x26+x50-y26_50 <=1 
C750: x26+x51-y26_51 <=1 
C751: x26+x55 <=1 
C752: x26+x59-y26_59 <=1 
C753: x26+x60 <=1 
C754: x26+x61-y26_61 <=1 
C755: x27+x28-y27_28 <=1 
C756: x27+x31-y27_31 <=1 
C757: x27+x33-y27_33 <=1 
C758: x27+x34 <=1 
C759: x27+x38-y27_38 <=1 
C760: x27+x40-y27_40 <=1 
C761: x27+x41-y27_41 <=1 
C762: x27+x43-y27_43 <=1 
C763: x27+x46-y27_46 <=1 
C764: x27+x47-y27_47 <=1 
C765: x27+x49-y27_49 <=1 
C766: x27+x52-y27_52 <=1 
C767: x27+x53-y27_53 <=1 
C768: x27+x54-y27_54 <=1 
C769: x27+x55-y27_55 <=1 
C770: x27+x56 <=1 
C771: x27+x59-y27_59 <=1 
C772: x27+x60-y27_60 <=1 
C773: x27+x61 <=1 
C774: x28+x29 <=1 
C775: x28+x30 <=1 
C776: x28+x31 <=1 
C777: x28+x32-y28_32 <=1 
C778: x28+x33-y28_33 <=1 
C779: x28+x34-y28_34 <=1 
C780: x28+x39-y28_39 <=1 
C781: x28+x41 <=1 
C782: x28+x42-y28_42 <=1 
C783: x28+x44 <=1 
C784: x28+x46 <=1 
C785: x28+x47 <=1 
C786: x28+x49-y28_49 <=1 
C787: x28+x52-y28_52 <=1 
C788: x28+x55-y28_55 <=1 
C789: x28+x56 <=1 
C790: x28+x57-y28_57 <=1 
C791: x28+x58 <=1 
C792: x28+x60 <=1 
C793: x29+x31 <=1 
C794: x29+x32 <=1 
C795: x29+x33-y29_33 <=1 
C796: x29+x34-y29_34 <=1 
C797: x29+x37-y29_37 <=1 
C798: x29+x39 <=1 
C799: x29+x40 <=1 
C800: x29+x41-y29_41 <=1 
C801: x29+x42-y29_42 <=1 
C802: x29+x43-y29_43 <=1 
C803: x29+x46 <=1 
C804: x29+x50 <=1 
C805: x29+x51-y29_51 <=1 
C806: x29+x52-y29_52 <=1 
C807: x29+x54 <=1 
C808: x29+x55-y29_55 <=1 
C809: x29+x56 <=1 
C810: x29+x59 <=1 
C811: x29+x60 <=1 
C812: x29+x61-y29_61 <=1 
C813: x30+x32 <=1 
C814: x30+x33-y30_33 <=1 
C815: x30+x35 <=1 
C816: x30+x40 <=1 
C817: x30+x42-y30_42 <=1 
C818: x30+x44 <=1 
C819: x30+x45-y30_45 <=1 
C820: x30+x46 <=1 
C821: x30+x47 <=1 
C822: x30+x48-y30_48 <=1 
C823: x30+x50 <=1 
C824: x30+x52 <=1 
C825: x30+x53-y30_53 <=1 
C826: x30+x55 <=1 
C827: x30+x56-y30_56 <=1 
C828: x30+x58-y30_58 <=1 
C829: x30+x59-y30_59 <=1 
C830: x30+x60 <=1 
C831: x30+x61-y30_61 <=1 
C832: x31+x32 <=1 
C833: x31+x33 <=1 
C834: x31+x35-y31_35 <=1 
C835: x31+x37-y31_37 <=1 
C836: x31+x38 <=1 
C837: x31+x40-y31_40 <=1 
C838: x31+x41-y31_41 <=1 
C839: x31+x42-y31_42 <=1 
C840: x31+x43 <=1 
C841: x31+x44 <=1 
C842: x31+x47 <=1 
C843: x31+x48 <=1 
C844: x31+x50-y31_50 <=1 
C845: x31+x53 <=1 
C846: x31+x55-y31_55 <=1 
C847: x31+x59 <=1 
C848: x31+x60 <=1 
C849: x32+x33 <=1 
C850: x32+x34-y32_34 <=1 
C851: x32+x35-y32_35 <=1 
C852: x32+x37-y32_37 <=1 
C853: x32+x38 <=1 
C854: x32+x39 <=1 
C855: x32+x40-y32_40 <=1 
C856: x32+x42 <=1 
C857: x32+x43-y32_43 <=1 
C858: x32+x44-y32_44 <=1 
C859: x32+x45 <=1 
C860: x32+x47 <=1 
C861: x32+x50 <=1 
C862: x32+x55-y32_55 <=1 
C863: x32+x56 <=1 
C864: x32+x59-y32_59 <=1 
C865: x32+x60 <=1 
C866: x32+x61-y32_61 <=1 
C867: x33+x35 <=1 
C868: x33+x36-y33_36 <=1 
C869: x33+x41-y33_41 <=1 
C870: x33+x43-y33_43 <=1 
C871: x33+x47 <=1 
C872: x33+x48 <=1 
C873: x33+x49-y33_49 <=1 
C874: x33+x50-y33_50 <=1 
C875: x33+x51 <=1 
C876: x33+x53 <=1 
C877: x33+x55 <=1 
C878: x33+x56 <=1 
C879: x33+x58-y33_58 <=1 
C880: x33+x61 <=1 
C881: x34+x37 <=1 
C882: x34+x38 <=1 
C883: x34+x39-y34_39 <=1 
C884: x34+x41-y34_41 <=1 
C885: x34+x43-y34_43 <=1 
C886: x34+x44-y34_44 <=1 
C887: x34+x45 <=1 
C888: x34+x47-y34_47 <=1 
C889: x34+x48-y34_48 <=1 
C890: x34+x49-y34_49 <=1 
C891: x34+x50 <=1 
C892: x34+x51 <=1 
C893: x34+x52-y34_52 <=1 
C894: x34+x53 <=1 
C895: x34+x54-y34_54 <=1 
C896: x34+x56 <=1 
C897: x34+x57 <=1 
C898: x34+x58 <=1 
C899: x34+x59-y34_59 <=1 
C900: x35+x36-y35_36 <=1 
C901: x35+x37 <=1 
C902: x35+x39 <=1 
C903: x35+x40 <=1 
C904: x35+x43-y35_43 <=1 
C905: x35+x45 <=1 
C906: x35+x46 <=1 
C907: x35+x47 <=1 
C908: x35+x49 <=1 
C909: x35+x51 <=1 
C910: x35+x53 <=1 
C911: x35+x55-y35_55 <=1 
C912: x35+x56-y35_56 <=1 
C913: x35+x57 <=1 
C914: x35+x59-y35_59 <=1 
C915: x35+x60 <=1 
C916: x35+x61-y35_61 <=1 
C917: x36+x37-y36_37 <=1 
C918: x36+x38-y36_38 <=1 
C919: x36+x39-y36_39 <=1 
C920: x36+x40-y36_40 <=1 
C921: x36+x41 <=1 
C922: x36+x42 <=1 
C923: x36+x46 <=1 
C924: x36+x47-y36_47 <=1 
C925: x36+x54 <=1 
C926: x36+x56-y36_56 <=1 
C927: x36+x57 <=1 
C928: x36+x59-y36_59 <=1 
C929: x36+x60 <=1 
C930: x37+x38-y37_38 <=1 
C931: x37+x40 <=1 
C932: x37+x41-y37_41 <=1 
C933: x37+x44 <=1 
C934: x37+x45-y37_45 <=1 
C935: x37+x47-y37_47 <=1 
C936: x37+x51 <=1 
C937: x37+x54-y37_54 <=1 
C938: x37+x55-y37_55 <=1 
C939: x37+x57-y37_57 <=1 
C940: x37+x59 <=1 
C941: x37+x60 <=1 
C942: x37+x61-y37_61 <=1 
C943: x38+x39 <=1 
C944: x38+x40 <=1 
C945: x38+x43 <=1 
C946: x38+x44 <=1 
C947: x38+x45 <=1 
C948: x38+x46 <=1 
C949: x38+x47 <=1 
C950: x38+x48-y38_48 <=1 
C951: x38+x49-y38_49 <=1 
C952: x38+x50 <=1 
C953: x38+x51-y38_51 <=1 
C954: x38+x52-y38_52 <=1 
C955: x38+x55 <=1 
C956: x38+x57 <=1 
C957: x38+x58-y38_58 <=1 
C958: x38+x59-y38_59 <=1 
C959: x38+x61 <=1 
C960: x39+x41 <=1 
C961: x39+x42 <=1 
C962: x39+x43-y39_43 <=1 
C963: x39+x44 <=1 
C964: x39+x45-y39_45 <=1 
C965: x39+x46 <=1 
C966: x39+x47-y39_47 <=1 
C967: x39+x48-y39_48 <=1 
C968: x39+x51 <=1 
C969: x39+x52 <=1 
C970: x39+x54-y39_54 <=1 
C971: x39+x55-y39_55 <=1 
C972: x39+x56-y39_56 <=1 
C973: x39+x58 <=1 
C974: x39+x59 <=1 
C975: x39+x61-y39_61 <=1 
C976: x40+x42 <=1 
C977: x40+x43-y40_43 <=1 
C978: x40+x44 <=1 
C979: x40+x45-y40_45 <=1 
C980: x40+x46-y40_46 <=1 
C981: x40+x47 <=1 
C982: x40+x49-y40_49 <=1 
C983: x40+x50-y40_50 <=1 
C984: x40+x54-y40_54 <=1 
C985: x40+x55-y40_55 <=1 
C986: x40+x57 <=1 
C987: x40+x58 <=1 
C988: x40+x59 <=1 
C989: x40+x60 <=1 
C990: x41+x42-y41_42 <=1 
C991: x41+x44 <=1 
C992: x41+x45 <=1 
C993: x41+x46 <=1 
C994: x41+x47 <=1 
C995: x41+x49-y41_49 <=1 
C996: x41+x50 <=1 
C997: x41+x51 <=1 
C998: x41+x52 <=1 
C999: x41+x54 <=1 
C1000: x41+x56-y41_56 <=1 
C1001: x41+x57-y41_57 <=1 
C1002: x41+x58 <=1 
C1003: x41+x59-y41_59 <=1 
C1004: x41+x61 <=1 
C1005: x42+x43-y42_43 <=1 
C1006: x42+x44 <=1 
C1007: x42+x45 <=1 
C1008: x42+x47 <=1 
C1009: x42+x48-y42_48 <=1 
C1010: x42+x49 <=1 
C1011: x42+x50 <=1 
C1012: x42+x52 <=1 
C1013: x42+x54-y42_54 <=1 
C1014: x42+x55-y42_55 <=1 
C1015: x42+x57 <=1 
C1016: x42+x59 <=1 
C1017: x42+x60 <=1 
C1018: x42+x61-y42_61 <=1 
C1019: x43+x46-y43_46 <=1 
C1020: x43+x47 <=1 
C1021: x43+x50 <=1 
C1022: x43+x51 <=1 
C1023: x43+x52-y43_52 <=1 
C1024: x43+x53 <=1 
C1025: x43+x54 <=1 
C1026: x43+x55-y43_55 <=1 
C1027: x43+x57 <=1 
C1028: x43+x59 <=1 
C1029: x43+x61-y43_61 <=1 
C1030: x44+x46-y44_46 <=1 
C1031: x44+x47 <=1 
C1032: x44+x51 <=1 
C1033: x44+x53 <=1 
C1034: x44+x54 <=1 
C1035: x44+x57-y44_57 <=1 
C1036: x44+x58 <=1 
C1037: x44+x59-y44_59 <=1 
C1038: x44+x60-y44_60 <=1 
C1039: x45+x46 <=1 
C1040: x45+x48 <=1 
C1041: x45+x49 <=1 
C1042: x45+x50 <=1 
C1043: x45+x53-y45_53 <=1 
C1044: x45+x56 <=1 
C1045: x45+x57-y45_57 <=1 
C1046: x45+x58 <=1 
C1047: x45+x61-y45_61 <=1 
C1048: x46+x47 <=1 
C1049: x46+x48 <=1 
C1050: x46+x52 <=1 
C1051: x46+x55-y46_55 <=1 
C1052: x46+x58-y46_58 <=1 
C1053: x46+x59 <=1 
C1054: x46+x60-y46_60 <=1 
C1055: x46+x61-y46_61 <=1 
C1056: x47+x49-y47_49 <=1 
C1057: x47+x53-y47_53 <=1 
C1058: x47+x54-y47_54 <=1 
C1059: x47+x55-y47_55 <=1 
C1060: x47+x57-y47_57 <=1 
C1061: x47+x59-y47_59 <=1 
C1062: x47+x60 <=1 
C1063: x47+x61 <=1 
C1064: x48+x49-y48_49 <=1 
C1065: x48+x50 <=1 
C1066: x48+x51-y48_51 <=1 
C1067: x48+x52 <=1 
C1068: x48+x53-y48_53 <=1 
C1069: x48+x54 <=1 
C1070: x48+x55 <=1 
C1071: x48+x56 <=1 
C1072: x48+x58-y48_58 <=1 
C1073: x48+x59 <=1 
C1074: x48+x60-y48_60 <=1 
C1075: x48+x61-y48_61 <=1 
C1076: x49+x50 <=1 
C1077: x49+x51 <=1 
C1078: x49+x52 <=1 
C1079: x49+x53-y49_53 <=1 
C1080: x49+x54-y49_54 <=1 
C1081: x49+x55-y49_55 <=1 
C1082: x49+x56 <=1 
C1083: x49+x57-y49_57 <=1 
C1084: x49+x58 <=1 
C1085: x49+x61 <=1 
C1086: x50+x54-y50_54 <=1 
C1087: x50+x55-y50_55 <=1 
C1088: x50+x57 <=1 
C1089: x50+x58-y50_58 <=1 
C1090: x50+x59 <=1 
C1091: x50+x60-y50_60 <=1 
C1092: x51+x52-y51_52 <=1 
C1093: x51+x53-y51_53 <=1 
C1094: x51+x55 <=1 
C1095: x51+x56-y51_56 <=1 
C1096: x52+x57 <=1 
C1097: x52+x58 <=1 
C1098: x52+x59 <=1 
C1099: x52+x61-y52_61 <=1 
C1100: x53+x54-y53_54 <=1 
C1101: x53+x57-y53_57 <=1 
C1102: x53+x59-y53_59 <=1 
C1103: x53+x61 <=1 
C1104: x54+x55 <=1 
C1105: x54+x56-y54_56 <=1 
C1106: x54+x59-y54_59 <=1 
C1107: x54+x61 <=1 
C1108: x55+x57-y55_57 <=1 
C1109: x56+x57 <=1 
C1110: x56+x60-y56_60 <=1 
C1111: x56+x61 <=1 
C1112: x57+x59-y57_59 <=1 
C1113: x57+x61 <=1 
C1114: x58+x60-y58_60 <=1 
C1115: x58+x61 <=1 
C1116: x59+x60 <=1 
C1117: x59+x61 <=1 
C1118: x60+x61-y60_61 <=1 

binary
x0
x1
x2
x3
x4
x5
x6
x7
x8
x9
x10
x11
x12
x13
x14
x15
x16
x17
x18
x19
x20
x21
x22
x23
x24
x25
x26
x27
x28
x29
x30
x31
x32
x33
x34
x35
x36
x37
x38
x39
x40
x41
x42
x43
x44
x45
x46
x47
x48
x49
x50
x51
x52
x53
x54
x55
x56
x57
x58
x59
x60
x61
