problem_generation/data/GISP/train/er_n=62_m=1118_p=0.60_SET2_setparam=100.00_alpha=0.50_831.sol
objective value:                                 1181
x1                                                  1 	(obj:100)
x3                                                  1 	(obj:100)
x10                                                 1 	(obj:100)
x18                                                 1 	(obj:100)
x27                                                 1 	(obj:100)
x29                                                 1 	(obj:100)
x35                                                 1 	(obj:100)
x36                                                 1 	(obj:100)
x43                                                 1 	(obj:100)
x44                                                 1 	(obj:100)
x52                                                 1 	(obj:100)
x55                                                 1 	(obj:100)
y18_35                                              1 	(obj:-1)
y18_44                                              1 	(obj:-1)
y43_55                                              1 	(obj:-1)
y10_44                                              1 	(obj:-1)
y35_55                                              1 	(obj:-1)
y35_36                                              1 	(obj:-1)
y27_55                                              1 	(obj:-1)
y1_18                                               1 	(obj:-1)
y3_27                                               1 	(obj:-1)
y29_43                                              1 	(obj:-1)
y29_52                                              1 	(obj:-1)
y43_52                                              1 	(obj:-1)
y1_55                                               1 	(obj:-1)
y35_43                                              1 	(obj:-1)
y27_43                                              1 	(obj:-1)
y27_52                                              1 	(obj:-1)
y1_3                                                1 	(obj:-1)
y18_55                                              1 	(obj:-1)
y29_55                                              1 	(obj:-1)
